Gurobi Optimizer version 9.1.2 build v9.1.2rc0 (linux64)
Thread count: 36 physical cores, 72 logical processors, using up to 32 threads
Optimize a model with 12 rows, 57 columns and 590 nonzeros
Model fingerprint: 0xf32eec78
Model has 47 quadratic constraints
Coefficient statistics:
  Matrix range     [2e-05, 3e+00]
  QMatrix range    [1e+00, 1e+00]
  QLMatrix range   [1e+00, 1e+00]
  Objective range  [8e-03, 7e-01]
  Bounds range     [1e+00, 1e+00]
  RHS range        [1e+00, 1e+00]
Presolve removed 9 rows and 0 columns

Continuous model is non-convex -- solving as a MIP.

Presolve removed 9 rows and 0 columns
Presolve time: 0.00s
Presolved: 189 rows, 57 columns, 443 nonzeros
Presolved model has 47 bilinear constraint(s)
Variable types: 57 continuous, 0 integer (0 binary)

Root relaxation: objective -1.743721e+00, 44 iterations, 0.00 seconds

    Nodes    |    Current Node    |     Objective Bounds      |     Work
 Expl Unexpl |  Obj  Depth IntInf | Incumbent    BestBd   Gap | It/Node Time

     0     0   -1.74372    0   38          -   -1.74372      -     -    0s
H    0     0                       0.6147548   -1.74372   384%     -    0s
     0     0   -1.64739    0    1    0.61475   -1.64739   368%     -    0s
H    0     0                      -1.6450460   -1.64739  0.14%     -    0s
     0     0     cutoff    0        -1.64505   -1.64505  0.00%     -    0s

Cutting planes:
  RLT: 25
  BQP: 3

Explored 1 nodes (76 simplex iterations) in 0.01 seconds
Thread count was 32 (of 72 available processors)

Solution count 2: -1.64505 0.614755 
No other solutions better than -1.64505

Optimal solution found (tolerance 1.00e-04)
Best objective -1.645045978473e+00, best bound -1.645045978473e+00, gap 0.0000%

User-callback calls 78, time in user-callback 0.00 sec
Gurobi Optimizer version 9.1.2 build v9.1.2rc0 (linux64)
Thread count: 36 physical cores, 72 logical processors, using up to 32 threads
Optimize a model with 60 rows, 312 columns and 16100 nonzeros
Model fingerprint: 0x4af2c70b
Model has 262 quadratic constraints
Coefficient statistics:
  Matrix range     [4e-07, 7e+00]
  QMatrix range    [1e+00, 1e+00]
  QLMatrix range   [1e+00, 1e+00]
  Objective range  [5e-03, 1e+00]
  Bounds range     [1e+00, 1e+00]
  RHS range        [1e+00, 1e+00]
Presolve removed 15 rows and 0 columns

Continuous model is non-convex -- solving as a MIP.

Presolve removed 15 rows and 0 columns
Presolve time: 0.01s
Presolved: 1081 rows, 312 columns, 13448 nonzeros
Presolved model has 262 bilinear constraint(s)
Variable types: 312 continuous, 0 integer (0 binary)

Root relaxation: objective -2.555109e+01, 330 iterations, 0.02 seconds

    Nodes    |    Current Node    |     Objective Bounds      |     Work
 Expl Unexpl |  Obj  Depth IntInf | Incumbent    BestBd   Gap | It/Node Time

     0     0  -25.55109    0  147          -  -25.55109      -     -    0s
     0     0  -24.41897    0   74          -  -24.41897      -     -    0s
     0     0  -24.38201    0   74          -  -24.38201      -     -    0s
     0     0  -24.32278    0   65          -  -24.32278      -     -    0s
     0     0  -24.32166    0   69          -  -24.32166      -     -    0s
     0     0  -24.31698    0   69          -  -24.31698      -     -    0s
     0     0  -24.31504    0   69          -  -24.31504      -     -    0s
     0     0  -24.31244    0   83          -  -24.31244      -     -    0s
     0     0  -24.31114    0   83          -  -24.31114      -     -    0s
     0     0  -24.30673    0   74          -  -24.30673      -     -    0s
     0     0  -24.30504    0   83          -  -24.30504      -     -    0s
     0     0  -24.30208    0   74          -  -24.30208      -     -    0s
     0     0  -24.29993    0   74          -  -24.29993      -     -    0s
     0     0  -24.29840    0   74          -  -24.29840      -     -    0s
     0     0  -24.29773    0   74          -  -24.29773      -     -    0s
     0     0  -24.29579    0   74          -  -24.29579      -     -    0s
     0     0  -24.29561    0   74          -  -24.29561      -     -    0s
     0     0  -24.29529    0   74          -  -24.29529      -     -    0s
     0     0  -24.29491    0   74          -  -24.29491      -     -    0s
H    0     0                     -21.8329865  -24.29491  11.3%     -    0s
H    0     0                     -22.0877396  -24.29491  10.0%     -    0s
     0     2  -24.29491    0   74  -22.08774  -24.29491  10.0%     -    0s
* 1316  1214              45     -22.0919546  -23.58557  6.76%  53.3    1s
* 1895  1737              69     -22.1120298  -23.58557  6.66%  44.6    2s
* 2014  1836              69     -22.1125004  -23.57544  6.62%  43.7    2s
* 2120  1891              56     -22.9599773  -23.57544  2.68%  43.0    2s
* 2121  1891              56     -22.9599774  -23.57544  2.68%  43.0    2s
* 2438  1790              59     -23.0537226  -23.57544  2.26%  42.1    2s
* 5029  1713              41     -23.0538972  -23.42139  1.59%  41.0    3s
* 5619  1724              39     -23.0539386  -23.42139  1.59%  40.2    3s
* 5863  1786              41     -23.0540190  -23.29768  1.06%  40.0    3s
  7808   947  -23.26647   23   41  -23.05402  -23.26647  0.92%  41.3    5s
*10254   813              58     -23.0543241  -23.26647  0.92%  40.2    5s
*10257   813              58     -23.0543297  -23.26647  0.92%  40.2    5s
*11874  1152              57     -23.0546834  -23.26647  0.92%  39.5    6s
*12041  1225              61     -23.0560743  -23.26647  0.91%  39.3    6s
*12371  1268              61     -23.0561003  -23.26647  0.91%  39.0    6s
*13131  1417              69     -23.0610908  -23.26647  0.89%  38.4    6s
*14723  1722              74     -23.0612844  -23.26647  0.89%  37.3    6s
*14726  1722              74     -23.0612851  -23.26647  0.89%  37.3    6s
*17580  1856              66     -23.0612983  -23.24002  0.77%  35.8    7s
*18172  2045              70     -23.0616005  -23.22622  0.71%  35.3    7s
*18247  1930              52     -23.0703811  -23.22622  0.68%  35.3    7s
*19342  1803              83     -23.0751207  -23.20614  0.57%  34.5    7s
*19344  1803              84     -23.0753007  -23.20614  0.57%  34.5    7s
*19345  1803              84     -23.0753069  -23.20614  0.57%  34.5    7s
*19346  1803              82     -23.0753556  -23.20614  0.57%  34.5    7s
*19435  1803              72     -23.0895680  -23.20614  0.50%  34.4    7s
*25145  1092              74     -23.0897347  -23.11414  0.11%  32.2    8s
*25148  1092              74     -23.0897839  -23.11414  0.11%  32.2    8s
*25224  1092              73     -23.0902397  -23.11301  0.10%  32.2    8s
*25227  1092              71     -23.0902713  -23.11301  0.10%  32.2    8s
*26095  1142              70     -23.0908684  -23.11148  0.09%  31.6    9s
*26096  1142              70     -23.0909060  -23.11148  0.09%  31.6    9s
*27225  1580              66     -23.0911930  -23.10897  0.08%  30.8    9s
*27237  1580              68     -23.0912779  -23.10897  0.08%  30.8    9s
*27885  1580              63     -23.0917711  -23.10897  0.07%  30.2    9s
*27887  1580              64     -23.0917781  -23.10897  0.07%  30.2    9s
*28365  1921              78     -23.0917857  -23.10445  0.05%  29.8    9s
*28366  1921              78     -23.0917862  -23.10445  0.05%  29.8    9s
*28525  1921              70     -23.0919092  -23.09666  0.02%  29.7    9s
*28528  1921              71     -23.0919238  -23.09666  0.02%  29.7    9s
*28587  1921              69     -23.0921304  -23.09666  0.02%  29.6    9s
*28606  1921              65     -23.0927651  -23.09666  0.02%  29.6    9s
*29884  1233              68     -23.0927658  -23.09542  0.01%  28.6    9s
*30127  1233              61     -23.0928255  -23.09504  0.01%  28.4    9s
*30413  1233              67     -23.0928424  -23.09429  0.01%  28.2    9s
*31287  1233              67     -23.0928934  -23.09383  0.00%  27.5    9s

Explored 31448 nodes (860393 simplex iterations) in 9.67 seconds
Thread count was 32 (of 72 available processors)

Solution count 10: -23.0929 -23.0928 -23.0928 ... -23.0918

Optimal solution found (tolerance 1.00e-04)
Best objective -2.309289343392e+01, best bound -2.309341400358e+01, gap 0.0023%

User-callback calls 64027, time in user-callback 0.01 sec



objective value: -23.092893433917723
objective bound: -23.093414003581685
x_opt: [1.0, 1.0, 0.0, 0.39957878333964725, 0.0, 0.0, 1.0, 0.0, 0.0, 0.0, 1.0, 0.0, 1.0, 1.0, 0.19177209954010868, 1.0, 0.0, 1.0, 0.0, 0.0, 0.9997158070067207, 0.664743926010718, 0.0, 0.8169787329271957, 0.0, 0.7760436388951127, 0.0, 1.0, 0.0, 0.0, 1.0, 0.8780373081443613, 0.0, 0.38965792271145594, 1.0, 1.0, 0.06966059169955022, 1.0, 0.0, 0.8199956820257486, 1.0, 0.0, 1.0, 0.009035318311701573, 0.0, 0.08849960311873935, 0.9070444327472146, 0.0, 1.0, 0.1634860193394394]
GUROBI solution time: 9.671048164367676




